22
 1 440 20
 2 207 9
 3 48 2
 4 500 20
 5 364 14
 6 27 1
 7 448 16
 8 319 11
 9 570 19
 10 496 16
 11 256 8
 12 561 17
 13 646 19
 14 490 14
 15 108 3
 16 74 2
 17 38 1
 18 741 19
 19 200 5
 20 328 8
 21 756 18
 22 43 1
88